1 2 4 0
1 2 -4 0
-1 2 4 0
-1 2 -4 0
1 -2 4 0
1 -2 -4 0
-1 -2 4 0
-1 -2 -4 0
1 4 0
1 -4 0
-1 4 0
-1 -4 0
4 0
-4 0
-4 0
0
d 1 2 4 0
d 1 2 -4 0
d -1 2 4 0
d -1 2 -4 0
d 1 -2 4 0
d 1 -2 -4 0
d -1 -2 4 0
d -1 -2 -4 0
d 1 4 0
d 1 -4 0
d -1 4 0
d -1 -4 0
d 4 0
d -4 0
d -4 0
